c --- [ banner ] -------------------------------------------------------------
c 
c CaDiCaL Radically Simplified CDCL SAT Solver
c Copyright (c) 2016-2021 A. Biere, M. Fleury, N. Froleyks
c 
c Version 1.5.2 a5f15211db36c3956764e18194dd5bd63bf3b5e6
c g++ (GCC) 9.3.0 -Wall -Wextra -O3 -DNDEBUG
c Fri Oct 21 01:27:37 EDT 2022 Linux gra-login3 3.10.0-1160.66.1.el7.x86_64 x86_64
c 
c --- [ limit ] --------------------------------------------------------------
c 
c setting conflict limit to 200000 conflicts (due to '200000')
c 
c --- [ parsing input ] ------------------------------------------------------
c 
c reading DIMACS file from '33.cubes2522.adj'
c opening file to read '33.cubes2522.adj'
c found 'p cnf 6160 1595473' header
c parsed 1595473 clauses in 16.23 seconds process time
c closing file '33.cubes2522.adj'
c after reading 1457566758 bytes 1390.0 MB
c 
c --- [ options ] ------------------------------------------------------------
c 
c all options are set to their default value
c 
c --- [ solving ] ------------------------------------------------------------
c 
c time measured in process time since initialization
c 
c  seconds    reductions  redundant   irredundant
c          MB     restarts       trail       variables
c            level   conflicts       glue         remaining
c 
c * 16.23 1376  0 0   0    0    0  0% 0 1595422 2409 39%
c { 17.58 1440  0 0   0    0    0  0% 0 1595422 2409 39%
c i 19.14 1485 479 0   2   50   39 31% 8 1595422 2387 39%
c i 19.93 1495 315 0   5   88   68 31% 12 1595422 2383 39%
c i 20.54 1500 247 0  12  119   94 30% 19 1595422 2373 39%
c i 20.85 1502 222 0  16  141  110 29% 22 1595422 2367 38%
c i 21.96 1510 165 0  38  234  189 29% 36 1595422 2366 38%
c i 22.30 1510 144 0  45  284  222 28% 34 1595422 2359 38%
c i 22.50 1511 144 0  48  301  232 28% 36 1595422 2351 38%
c - 25.66 1390 144 1  48  301  232 28% 36 256061 2351 38%
c i 26.18 1390 136 1  56  340  265 28% 36 256061 2350 38%
c i 26.19 1390 136 1  56  341  265 28% 36 256061 2349 38%
c i 26.28 1390 132 1  56  360  283 28% 36 256061 2348 38%
c i 26.32 1390 132 1  56  362  284 28% 36 256061 2347 38%
c i 26.48 1390 129 1  59  382  301 28% 36 256061 2346 38%
c i 26.56 1390 129 1  61  399  313 28% 37 256061 2345 38%
c i 26.64 1390 123 1  63  426  338 28% 36 256061 2344 38%
c i 26.67 1390 119 1  63  448  357 28% 36 256061 2343 38%
c i 26.72 1390 105 1  63  522  410 28% 34 256061 2342 38%
c i 26.72 1390 105 1  63  523  410 28% 34 256061 2341 38%
c 
c  seconds    reductions  redundant   irredundant
c          MB     restarts       trail       variables
c            level   conflicts       glue         remaining
c 
c i 26.73 1390 99 1  63  569  447 29% 33 256061 2340 38%
c i 26.74 1390 98 1  63  574  451 29% 33 256061 2339 38%
c i 26.76 1390 97 1  63  589  464 29% 33 256061 2338 38%
c i 26.76 1390 97 1  63  594  468 29% 33 256061 2337 38%
c i 26.77 1390 96 1  63  608  480 29% 33 256061 2336 38%
c i 26.79 1390 94 1  63  636  506 29% 33 256061 2335 38%
c i 26.83 1390 95 1  64  641  510 29% 33 256061 2334 38%
c i 26.83 1390 95 1  64  644  511 29% 33 256061 2332 38%
c i 26.95 1390 96 1  67  665  530 29% 33 256061 2331 38%
c i 27.09 1390 96 1  73  689  551 29% 33 256061 2330 38%
c i 27.32 1390 97 1  77  722  579 28% 33 256061 2329 38%
c i 27.48 1390 97 1  82  746  600 28% 34 256061 2328 38%
c i 27.50 1390 96 1  84  754  605 28% 34 256061 2327 38%
c i 27.84 1390 96 1  89  794  638 28% 34 256061 2326 38%
c i 28.02 1390 95 1  94  827  668 28% 34 256061 2325 38%
c i 28.11 1390 94 1  94  850  685 28% 34 256061 2324 38%
c i 28.14 1390 93 1  94  859  693 28% 34 256061 2323 38%
c i 28.19 1390 93 1  94  874  705 28% 34 256061 2322 38%
c i 28.20 1390 92 1  94  877  707 28% 34 256061 2321 38%
c i 28.29 1390 90 1  94  919  739 28% 34 256061 2320 38%
c 
c  seconds    reductions  redundant   irredundant
c          MB     restarts       trail       variables
c            level   conflicts       glue         remaining
c 
c i 28.34 1390 89 1  94  944  755 28% 34 256061 2319 38%
c i 28.38 1390 88 1  94  960  767 28% 34 256061 2318 38%
c } 28.44 1390 85 1  94 1001  797 28% 33 256061 2318 38%
c [ 28.44 1390  0 1  94 1001  797  0% 0 256061 2318 38%
c O 28.44 1390  1 1  94 1002  797 12% 0 256061 2318 38%
c i 28.44 1390  1 1  94 1002  797 12% 0 256061 2304 37%
c i 28.67 1390 26 1  94 1107  887 32% 21 256061 2303 37%
c i 28.71 1390 26 1  94 1127  903 32% 21 256061 2302 37%
c i 28.73 1390 25 1  94 1138  912 32% 20 256061 2301 37%
c i 28.73 1390 25 1  94 1139  912 32% 20 256061 2300 37%
c - 29.17 1505 25 2  94 1146  798 32% 20 255724 2300 37%
c i 29.32 1505 23 2  94 1230  857 32% 19 255724 2299 37%
c i 29.32 1505 23 2  94 1231  857 32% 19 255724 2298 37%
c ] 29.53 1505 21 2  94 1969 1391 33% 18 255724 2298 37%
c 1 29.53 1505 21 2  94 1969 1391 33% 18 255724 2298 37%
c 
c --- [ writing output ] -----------------------------------------------------
c 
c writing simplified CNF to DIMACS file 'simp/33.cubes2522.adj.simp1'
c * 29.53 1505 21 2  94 1969 1391 33% 18 255724 2298 37%
c opening file to write 'simp/33.cubes2522.adj.simp1'
c writing 'p cnf 6160 255718' header
c closing file 'simp/33.cubes2522.adj.simp1'
c after writing 134611631 bytes 128.4 MB
c wrote 255718 clauses in 0.81 seconds process time
c 
c --- [ writing extension ] --------------------------------------------------
c 
c writing extension stack to 'simp/33.cubes2522.adj.ext1'
c opening file to write 'simp/33.cubes2522.adj.ext1'
c closing file 'simp/33.cubes2522.adj.ext1'
c after writing 10500 bytes 0.0 MB
c wrote 718 witnesses in 0.00 seconds process time
c 
c --- [ result ] -------------------------------------------------------------
c 
s SATISFIABLE
c 
c --- [ run-time profiling ] -------------------------------------------------
c 
c process time taken by individual solving procedures
c (percentage relative to process time for solving)
c 
c        16.23  122.01% parse
c        13.30  100.00% search
c        10.86   81.65% unstable
c         1.35   10.15% lucky
c         1.09    8.21% stable
c         0.00    0.00% simplify
c   =================================
c        13.30   43.84% solve
c 
c last line shows process time for solving
c (percentage relative to total process time)
c 
c --- [ statistics ] ---------------------------------------------------------
c 
c chronological:               520        26.41 %  of conflicts
c conflicts:                  1969       148.02    per second
c decisions:                 17768      1335.75    per second
c fixed:                       718        11.66 %  of all variables
c learned:                    1918        97.41 %  per conflict
c learned_lits:             400909       100.00 %  learned literals
c minimized:                     0         0.00 %  learned literals
c shrunken:                 189924        47.37 %  learned literals
c minishrunken:              57248        14.28 %  learned literals
c propagations:             318884         0.02 M  per second
c reduced:                     120         6.09 %  per conflict
c rephased:                      1      1969.00    interval
c restarts:                     94        20.95    interval
c stabilizing:                   1        49.16 %  of conflicts
c subsumed:                    355         0.01 %  of all clauses
c 
c seconds are measured in process time for solving
c 
c --- [ resources ] ----------------------------------------------------------
c 
c total process time since initialization:        30.34    seconds
c total real time since initialization:           30.65    seconds
c maximum resident set size of process:         1510.88    MB
c 
c --- [ shutting down ] ------------------------------------------------------
c 
c exit 10
WARNING! DIMACS header mismatch: wrong number of variables.
============================[ Problem Statistics ]=============================
|                                                                             |
|  Number of variables:          6120                                         |
|  Number of clauses:          255718                                         |
|  Parse time:                   1.74 s                                       |
|  Simplification time:          0.04 s                                       |
|                                                                             |
============================[ Search Statistics ]====================================================
| Conflicts |          ORIGINAL         |          LEARNT          | Num Sols |      SUBGRAPHS      |
|           |    Vars  Clauses Literals |    Limit  Clauses Lit/Cl |          | Canonical Noncanon. |
=====================================================================================================
|       161 |    6024   255779 28673027 |     2000      158     63 |        0 |        51        61 |
|       436 |    6022   255904 28674451 |     2000      431     48 |        0 |        87       186 |
|       743 |    6020   255986 28675691 |     2000      736     70 |        0 |       101       268 |
|      1254 |    6014   256160 28679494 |     2000     1241     71 |        0 |       147       442 |
|      1916 |    6005   256316 28682442 |     2000     1894     78 |        0 |       214       598 |
|      2745 |    5998   256386 28683933 |     3590     1730     56 |        0 |       239       668 |
|      4046 |    5992   256548 28686421 |     3590     3025     72 |        0 |       308       830 |
|      5844 |    5990   256638 28688421 |     4989     3033     52 |        0 |       337       920 |
|      8569 |    5981   256801 28691904 |     6294     3263     43 |        0 |       378      1083 |
|     12700 |    5979   257088 28696485 |     7548     4247     41 |        0 |       465      1370 |
|     19102 |    5976   257724 28704755 |     8776     6877     53 |        0 |       630      2006 |
|     28152 |    5975   258125 28712388 |    11201     6553     39 |        0 |       742      2407 |
|     41347 |    5973   258346 28717723 |    13610     7957     42 |        0 |       874      2628 |
|     60969 |    5973   258507 28720938 |    16012    13381     58 |        0 |       982      2789 |
|     90356 |    5973   258702 28724994 |    19608    16964     68 |        0 |      1150      2984 |
|    135672 |    5971   260229 28744409 |    24406    19478     49 |        0 |      1646      4511 |
|    202297 |    5971   261170 28761738 |    30412    19109     46 |        0 |      2279      5452 |
|    301988 |    5971   262167 28786807 |    37617    18605     31 |        0 |      3060      6617 |
|    451147 |    5971   263537 28814998 |    46025    23572     35 |        0 |      4185      7987 |
|    673955 |    5953   263252 28811156 |    52957    42912     79 |        0 |      4997      9112 |
|   1007785 |    5953   264554 28836840 |    68803    40588     51 |        0 |      5724     10417 |
|   1508370 |    5718   138049 17171679 |    62368    25135     35 |        0 |      6759     12214 |
=====================================================================================================
Number of solutions   : 0
Canonical subgraphs   : 6794           (10 /sec)
          order  3    : 1              (200000 /sec)
          order  4    : 1              (500000 /sec)
          order  5    : 1              (200000 /sec)
          order  6    : 1              (55556 /sec)
          order  7    : 1              (8621 /sec)
          order  8    : 2              (1387 /sec)
          order  9    : 6              (317 /sec)
          order 10    : 14             (65 /sec)
          order 11    : 60             (16 /sec)
          order 12    : 234            (17 /sec)
          order 13    : 274            (25 /sec)
          order 14    : 253            (15 /sec)
          order 15    : 1852           (11 /sec)
          order 16    : 2811           (9 /sec)
          order 17    : 852            (9 /sec)
          order 18    : 182            (8 /sec)
          order 19    : 114            (8 /sec)
          order 20    : 70             (9 /sec)
          order 21    : 65             (9 /sec)
          order 22    : 0              (-nan /sec)
Noncanonical subgraphs: 12261          (259 /sec)
          order  3    : 0              (-nan /sec)
          order  4    : 0              (-nan /sec)
          order  5    : 0              (-nan /sec)
          order  6    : 0              (-nan /sec)
          order  7    : 0              (-nan /sec)
          order  8    : 0              (-nan /sec)
          order  9    : 0              (-nan /sec)
          order 10    : 0              (-nan /sec)
          order 11    : 0              (-nan /sec)
          order 12    : 0              (-nan /sec)
          order 13    : 2554           (5950 /sec)
          order 14    : 1268           (5553 /sec)
          order 15    : 5199           (572 /sec)
          order 16    : 1153           (366 /sec)
          order 17    : 2010           (76 /sec)
          order 18    : 11             (33 /sec)
          order 19    : 1              (31 /sec)
          order 20    : 0              (-nan /sec)
          order 21    : 0              (-nan /sec)
Canonicity checking   : 654.379 s
Noncanonicity checking: 47.4057 s
Total canonicity time : 701.785 s
database reductions   : 68
restarts              : 3001
conflicts             : 1521168        (936 /sec)
decisions             : 1925558        (0.00 % random) (1184 /sec)
propagations          : 170399779      (104795 /sec)
conflict literals     : 156324130      (56.19 % deleted)
actual reward         : 0.119357
Memory used           : 377.00 MB
CPU time              : 1626.02 s

UNSATISFIABLE
